Fe(100) - 2x2 slab 5 layers
   2.83900000000000
     2.0000000000000000    0.0000000000000000    0.0000000000000000
     0.0000000000000000    2.0000000000000000    0.0000000000000000
     0.0000000000000000    0.0000000000000000    7.0000000000000009
   Fe N
    20 1
Selective dynamics
Direct
  0.0000000000000000  0.0000000000000000  0.0000000000000000   F   F   F
  0.5000000000000000  0.0000000000000000  0.0000000000000000   F   F   F
  0.0000000000000000  0.5000000000000000  0.0000000000000000   F   F   F
  0.5000000000000000  0.5000000000000000  0.0000000000000000   F   F   F
  0.2500000000000000  0.2500000000000000  0.0714285714285694   F   F   F
  0.7500000000000000  0.2500000000000000  0.0714285714285694   F   F   F
  0.2500000000000000  0.7500000000000000  0.0714285714285694   F   F   F
  0.7500000000000000  0.7500000000000000  0.0714285714285694   F   F   F
  0.0000000000000000  0.0000000000000000  0.1428571428571459   F   F   F
  0.5000000000000000  0.0000000000000000  0.1428571428571459   F   F   F
  0.0000000000000000  0.5000000000000000  0.1428571428571459   F   F   F
  0.5000000000000000  0.5000000000000000  0.1428571428571459   F   F   F
  0.2500000000000000  0.2500000000000000  0.2165930484313891   F   F   F
  0.7500000000000000  0.2500000000000000  0.2165930484313891   F   F   F
  0.2500000000000000  0.7500000000000000  0.2165930484313891   F   F   F
  0.7500000000000000  0.7500000000000000  0.2165930484313891   F   F   F
  0.0000000000000000  0.0000000000000000  0.2856259310337965   F   F   F
  0.5000000000000000  0.0000000000000000  0.2856259310337965   F   F   F
  0.0000000000000000  0.5000000000000000  0.2856259310337965   F   F   F
  0.5000000000000000  0.5000000000000000  0.2856259310337965   F   F   F
  0.25000000000000000  0.25000000000000000  0.337836   F   F   T
